cases/matpower/case5_dc.m
ipopt
QCRM
[warn | PowerModels]: the dc line model is not meant to be used bi-directionally when loss1 > 0, be careful interpreting the results as the dc line losses can now be negative. change loss1 to 0 to avoid this warning
[warn | PowerModels]: active generators found at bus 1, updating to bus type from 1 to 2
[warn | PowerModels]: active generators found at bus 5, updating to bus type from 1 to 2
[warn | PowerModels]: active generators found at bus 3, updating to bus type from 1 to 2
[warn | PowerModels]: the voltage setpoint on generator 5 does not match the value at bus 5
[warn | PowerModels]: the voltage setpoint on generator 2 does not match the value at bus 1
[warn | PowerModels]: the to bus voltage setpoint on dc line 1 does not match the value at bus 5
[info | PowerModels]: removing 1 cost terms from generator 4: [4000.0, 0.0]
[info | PowerModels]: removing 1 cost terms from generator 1: [1400.0, 0.0]
[info | PowerModels]: removing 1 cost terms from generator 5: [1000.0, 0.0]
[info | PowerModels]: removing 1 cost terms from generator 2: [1500.0, 0.0]
[info | PowerModels]: removing 1 cost terms from generator 3: [3000.0, 0.0]
[info | PowerModels]: removing 2 cost terms from dcline 1: [4000.0, 0.0]

******************************************************************************
This program contains Ipopt, a library for large-scale nonlinear optimization.
 Ipopt is released as open source code under the Eclipse Public License (EPL).
         For more information visit http://projects.coin-or.org/Ipopt
******************************************************************************

This is Ipopt version 3.13.2, running with linear solver mumps.
NOTE: Other linear solvers might be more efficient (see Ipopt documentation).

Number of nonzeros in equality constraint Jacobian...:      185
Number of nonzeros in inequality constraint Jacobian.:      386
Number of nonzeros in Lagrangian Hessian.............:       53

Total number of variables............................:       95
                     variables with only lower bounds:        0
                variables with lower and upper bounds:       90
                     variables with only upper bounds:        0
Total number of equality constraints.................:       48
Total number of inequality constraints...............:      148
        inequality constraints with only lower bounds:       71
   inequality constraints with lower and upper bounds:        0
        inequality constraints with only upper bounds:       77

iter    objective    inf_pr   inf_du lg(mu)  ||d||  lg(rg) alpha_du alpha_pr  ls
   0  7.0059989e+02 4.83e+01 4.22e+01  -1.0 0.00e+00    -  0.00e+00 0.00e+00   0
   1  9.0820520e+02 4.78e+01 4.20e+01  -1.0 2.51e+00    -  4.08e-03 1.14e-02h  1
   2  9.2840402e+02 4.74e+01 4.14e+01  -1.0 7.94e+00    -  2.84e-02 8.72e-03h  1
   3  1.8364269e+03 4.35e+01 4.12e+01  -1.0 5.62e+00    -  4.08e-02 8.22e-02h  1
   4  3.1862816e+03 3.82e+01 4.74e+01  -1.0 4.94e+00    -  4.08e-02 1.22e-01h  1
   5  4.4850709e+03 3.30e+01 4.67e+01  -1.0 5.55e+00    -  9.10e-02 1.36e-01h  2
   6  6.2274906e+03 2.54e+01 3.27e+01  -1.0 7.61e+00    -  2.58e-01 2.28e-01H  1
   7  7.4195612e+03 2.01e+01 3.23e+01  -1.0 8.56e+00    -  1.31e-01 2.12e-01H  1
   8  8.2945012e+03 1.58e+01 1.25e+01  -1.0 1.30e+01    -  6.44e-01 2.11e-01h  2
   9  9.5821026e+03 9.64e+00 7.92e+00  -1.0 1.66e+01    -  2.86e-01 3.91e-01H  1
iter    objective    inf_pr   inf_du lg(mu)  ||d||  lg(rg) alpha_du alpha_pr  ls
  10  9.6289246e+03 9.52e+00 7.68e+00  -1.0 8.84e+00    -  2.25e-02 1.26e-02h  1
  11  1.5511408e+04 1.03e-01 6.01e+00  -1.0 2.35e+00    -  8.47e-01 1.00e+00h  1
  12  1.5516164e+04 8.73e-12 1.88e+01  -1.0 1.25e+00    -  7.09e-01 9.78e-01h  1
  13  1.5527622e+04 1.01e-11 6.37e-02  -1.0 9.04e-01    -  1.00e+00 1.00e+00f  1
  14  1.5480717e+04 1.96e-02 3.99e+00  -2.5 2.19e+00    -  8.59e-01 8.26e-01f  1
  15  1.5459502e+04 7.05e-02 2.15e+00  -2.5 1.74e+00    -  8.66e-01 9.87e-01f  1
  16  1.5443858e+04 4.71e-02 9.71e-02  -2.5 1.08e+00    -  1.00e+00 1.00e+00h  1
  17  1.5446257e+04 1.02e-11 6.78e-03  -2.5 1.30e-01    -  1.00e+00 1.00e+00h  1
  18  1.5439717e+04 4.96e-03 5.35e-02  -3.8 5.38e-01    -  8.53e-01 8.49e-01f  1
  19  1.5438417e+04 1.50e-03 5.13e-01  -3.8 1.04e-01    -  1.00e+00 7.27e-01h  1
iter    objective    inf_pr   inf_du lg(mu)  ||d||  lg(rg) alpha_du alpha_pr  ls
  20  1.5438324e+04 4.99e-03 2.27e-03  -3.8 1.27e-01    -  1.00e+00 1.00e+00f  1
  21  1.5438321e+04 7.74e-12 1.36e-04  -3.8 9.03e-03    -  1.00e+00 1.00e+00h  1
  22  1.5438129e+04 5.97e-05 1.37e+00  -5.7 7.98e-02    -  9.25e-01 6.26e-01h  1
  23  1.5438052e+04 2.51e-03 3.78e-01  -5.7 6.84e-02    -  5.78e-01 8.75e-01h  1
  24  1.5438047e+04 3.51e-04 9.43e-05  -5.7 2.27e-02    -  1.00e+00 1.00e+00h  1
  25  1.5438047e+04 4.33e-12 6.62e-06  -5.7 8.04e-03    -  1.00e+00 1.00e+00h  1
  26  1.5438044e+04 2.34e-06 1.33e-02  -8.6 4.71e-03    -  9.81e-01 9.14e-01h  1
  27  1.5438044e+04 8.80e-07 7.62e-01  -8.6 1.11e-03    -  1.00e+00 6.13e-01h  1
  28  1.5438044e+04 9.57e-09 2.77e-01  -8.6 4.45e-04    -  9.57e-01 9.28e-01f  1
  29  1.5438044e+04 9.85e-12 2.55e-08  -8.6 3.23e-05    -  1.00e+00 1.00e+00f  1
iter    objective    inf_pr   inf_du lg(mu)  ||d||  lg(rg) alpha_du alpha_pr  ls
  30  1.5438044e+04 6.35e-12 5.98e+00  -8.6 2.13e-06    -  1.00e+00 5.58e-01h  1
  31  1.5438044e+04 4.53e-12 1.04e-09  -8.6 1.54e-06    -  1.00e+00 1.00e+00f  1

Number of Iterations....: 31

                                   (scaled)                 (unscaled)
Objective...............:   3.8595110842736221e+02    1.5438044337094489e+04
Dual infeasibility......:   1.0355977186904397e-09    4.1423908747617588e-08
Constraint violation....:   2.1885466862805550e-14    4.5300256601432665e-12
Complementarity.........:   3.8146465118362188e-09    1.5258586047344873e-07
Overall NLP error.......:   3.8146465118362188e-09    1.5258586047344873e-07


Number of objective function evaluations             = 41
Number of objective gradient evaluations             = 32
Number of equality constraint evaluations            = 41
Number of inequality constraint evaluations          = 41
Number of equality constraint Jacobian evaluations   = 32
Number of inequality constraint Jacobian evaluations = 32
Number of Lagrangian Hessian evaluations             = 31
Total CPU secs in IPOPT (w/o function evaluations)   =      0.337
Total CPU secs in NLP function evaluations           =      0.210

EXIT: Optimal Solution Found.
Time to Solution........:1.3600199222564697
